Reproduction of the Original Problem/Instances/S2-10/S2-10-10-1-s.txt
     200      10    0.10
       3       1       1       2       3       1       1       2       3       3       0       0       8      11      12       7       6      13       9      16       1
       1       3       2       1       1       1       2       2       3       2      12      12      16       7       6       1      15       2      13       4       2
       1       1       1       1       3       2       2       1       1       2      13       3       7      10       8       1      13       7      14      13       1
       1       3       3       2       2       2       2       1       2       2      10       2       0      10       9      14      13       9       9      10       1
       1       1       2       2       1       3       3       1       3       3       2      16       1      13      10      13       0      10       9       8       2
       1       3       2       3       2       3       1       2       1       1       0      10       8       3       2      14       0      14       0       1       1
       3       1       1       2       3       2       2       1       1       1      12       5      15       2      16      13      12       7      13       5       1
       3       2       2       2       2       2       2       2       3       2      15       2       6       4       5      16       0       2       3      10       2
       1       1       2       1       1       2       2       3       3       3       2       7       5       3       0      11      13      12       1       1       1
       2       1       3       1       2       2       1       3       2       2       8       6      12      10       3       9      16      10      14       8       2
       1       3       1       1       2       3       3       1       2       3      11      10       0       4       6      15      14       2       7       2       1
       3       1       3       1       3       3       2       2       1       3       2      11      11       6       1       5       6       8       2       8       2
       3       2       3       2       3       3       3       1       2       1       9       6      16       0      12       8      14       2      14       1       1
       1       3       1       3       3       2       2       3       2       1       7       9       6      16      12       2       5       9       7       3       2
       3       1       1       3       3       3       3       3       1       1      14       7       9       9       8       0      14      16       4       8       2
       2       2       1       1       2       1       3       2       2       3       5       9       6       4       2       0       7      12      15       0       2
       2       1       1       1       3       3       3       1       2       2       3       8      14       6      11      11       9       8       4      14       1
       2       2       1       2       1       2       2       3       2       3      12      15      16       0      14       1       4      10      11      15       2
       2       1       2       3       1       1       2       1       3       3       4       8       3       7      16       4      16       5       5       6       2
       2       1       2       1       2       3       1       1       3       3      14       9       2      10       8      14       1       6      10      16       1
       2       2       1       1       1       1       3       1       3       2      14       8       1       7      14      15       5       2      13      14       2
       3       2       3       3       1       1       3       1       2       1       5      13      10      11      15      15       4       6       8      15       1
       3       1       2       2       2       1       2       3       1       1       4      12      14       2      10       5      10      13       3       1       2
       2       1       3       2       3       3       1       2       2       3       8      13      12       7      10      12       8       2      15      13       2
       2       3       1       3       1       1       3       1       3       3       7       2      11       1       5       4      11       5      13       4       2
       1       1       2       1       1       3       3       1       2       3      15       2      12       9       3       7      14       4      15      12       2
       3       1       1       1       2       2       3       3       3       1      11      14      14       4       1      14      14       8       5      15       2
       1       1       2       3       2       3       2       1       2       2      14       3       4       1       0       4       7       3      14      15       1
       3       1       3       3       3       2       1       3       3       1       4       2       4       9       7       3      14      11      14      13       1
       3       1       2       3       2       3       3       3       3       3       1      12      13       2      10       8       5      16      11      12       1
       3       1       1       2       2       1       3       2       1       2       5       1       2       1       6       4       9       5       1       0       1
       2       2       2       2       2       2       3       1       2       1       8      15       7      10      15       6       6      15      10      11       2
       1       3       3       3       1       3       1       2       2       3       6      16      14       8      12       8      15      13       6       5       1
       1       1       3       2       3       1       2       2       3       1       6      12       5      10      11       2      16       2      15      10       2
       1       2       2       2       2       2       1       1       3       3       3      15       5       1       8       0       1       9      14       8       2
       1       2       1       1       3       3       3       1       3       3       7       3      13      11      12      13       7       3       8       4       2
       1       2       1       1       2       3       1       2       3       2       4       0       9       0       1      15       5      16      10       6       2
       3       3       3       2       1       3       3       1       2       1       5      15      13      14       0       8       3      16      15       4       1
       3       3       3       2       2       3       2       2       3       2      10       3       8       0       4      10      16       4       2      13       2
       3       2       2       3       1       3       3       3       1       3       7      15       7       7       3      14       8       7      14       8       2
       1       3       2       3       1       1       1       1       3       1      14       4       7       6      10       9       7       8      13       5       1
       2       1       3       2       2       3       3       3       1       2       5       5      14       5      10      13       0      14       7       4       2
       2       2       3       3       3       1       1       3       2       2       7      11       6      14       5      11       8       2      16       0       2
       1       1       3       2       3       1       3       3       2       2      16       3       3       1      14       6      10       5      13       8       1
       2       2       2       3       2       1       3       3       2       2      10       7      12      14       1       0       3      16       0      12       2
       3       1       2       1       3       2       3       1       3       3       5       6      10       6       3      13       8      12      10       0       1
       1       2       2       2       1       1       2       1       2       2      12      14       2      15      15      14      13      15       7      12       1
       2       1       2       3       1       3       3       1       1       2      11       8       8       3       1      16       5       4      13      10       1
       2       2       1       3       1       2       3       3       1       1      14       3       6      14       6      10       5       9       3       4       2
       2       3       2       3       1       3       3       2       2       1       6       4       1       9      16      13       0       2       7      14       1
       1       3       1       2       1       3       2       3       1       1       4       0      10       3       9      16       4      13      16       1       2
       1       1       1       2       2       1       3       2       2       3      12      10       4      15       2      16      11       0      14      11       1
       1       1       2       2       2       3       1       2       1       1       5       9      12      15       4      12      11      11       9       7       2
       2       1       3       3       2       2       3       3       3       2      12       2       5       0      15      11       7      11       9      16       1
       2       3       2       3       2       1       3       1       3       1       7      14       7      13      10       0      11       9      12      12       2
       1       1       1       1       1       1       2       3       1       2       5      12       3       8       5       3       4       8      14       6       1
       3       3       3       2       3       1       2       2       3       1      12       0       4      14       8       5      16      16       9       8       1
       3       1       1       2       2       3       1       3       3       2       3       4      14       8       4      14       4      10       1       3       2
       1       1       2       3       2       2       1       2       2       1       5      14      16      15       3       9      10      13       5       6       1
       1       2       2       3       3       2       1       2       2       3      12       6      12      10       9       1       5      11      13       1       2
       1       3       3       1       1       1       1       2       2       1      15      15       1       2       7       0       5      15       5      10       1
       2       3       1       2       2       1       2       2       2       2       8       2       6       8      10       0      10       8       8       5       1
       2       3       3       3       3       3       2       2       1       1       7       6       9       8       8       4       9      11       4       0       1
       2       2       3       2       3       1       1       1       3       2      10      11       4      15       9       0       0      16       2       5       2
       3       2       1       1       1       1       1       1       1       1      15      12       2      13      16       8       4      14       8       1       1
       3       3       2       3       1       2       3       2       2       1       7       9      15      15      15       5       6       6      11       9       1
       3       3       2       3       1       1       3       3       2       3       1       2       1       7      13       8       7      10       6       9       2
       1       1       3       2       3       2       1       1       3       1       9      15       0      14      13      10       5       9      11       3       2
       2       2       3       2       3       2       1       3       2       1       0      12       7      16       7       4      15      10       6       1       2
       2       2       3       3       3       3       3       2       1       3       8      15      12       5      13       3       3      15       4       8       2
       1       1       2       2       3       1       1       3       3       1       9       9       1      16       2       6       3       5       0      14       2
       3       1       3       1       1       1       2       1       3       3       9       3       1       8       0       3       6       5       1      10       2
       1       1       1       3       1       3       3       3       1       2      11       6       7       9      14       7       5      10       8      14       1
       2       3       2       1       3       1       1       3       2       2      11       4       3      13       2       1       3       8       6       1       1
       2       1       1       3       3       2       1       2       1       2      16       0      12       9      10      12      11      11      11       7       2
       3       3       3       2       3       2       2       3       3       2      16       8      13       3       8      14       3       9       9       1       1
       2       1       1       3       1       2       3       2       2       1      15       5       9       8      16      11      10      13       2       1       2
       3       1       3       1       2       2       1       2       3       3       1       6       1       0       0       4       2       8       9       9       2
       2       3       3       3       3       3       3       1       1       1      14       6       8      12       5      13      14       3       2       6       1
       2       2       1       2       2       2       3       3       1       3       2       3       6       7       7       1       1      12       5       1       2
       3       3       2       2       1       1       1       1       1       1       7      12       0       4       9       0      12      13       2      14       1
       3       2       1       2       1       2       1       3       2       2      16      15      15      16       4      15      13       0      13       7       2
       2       2       1       3       1       2       2       3       1       3       7       0      13      15       5      10      13      10       5      13       1
       2       3       1       3       2       1       3       3       2       2       8      16      15       2       1       5       6       8      12      11       1
       3       3       3       1       1       1       3       3       3       3       6       2      11       4       9       8      16       4      14       2       1
       3       1       1       1       3       2       1       1       3       1       3       0      10      11       2       4       9       3       3       8       1
       3       2       1       2       1       3       2       2       1       1      10      12      14       5       3       1       9       2       6       3       2
       3       1       3       1       3       3       2       1       3       2       3       3      16      14       5       8       6       0       1       8       2
       3       1       2       2       2       1       3       2       1       1      12      11       3      16      15       2       2      13       9       9       1
       2       3       3       1       1       3       2       2       1       3      14       5       3      14      12       9      13       7      12      15       2
       2       1       3       3       2       1       2       3       2       1       3       5       1       6      15      12       8      10       3       8       1
       3       3       2       2       1       2       2       2       2       2       1      12       4      13       7      15       3      11      14      14       2
       2       2       3       3       3       3       3       2       3       1      14      10      12      14       6       6       3       2      11      11       2
       3       3       3       1       2       3       2       3       3       3      10      15       4       5      10       9      13      15      11       1       2
       2       1       1       1       3       3       3       3       1       1       0       5       8       1      15       3      14      15      10       4       2
       1       1       1       3       1       3       3       2       3       1      10      15       6       3      10       2      11       7       4      14       1
       3       2       3       3       1       1       1       2       1       1       9       5      13       0       5       3      13       3      14       3       1
       1       2       3       1       1       2       1       2       2       3      10       5       6       2       9      16       0       1       0       2       1
       2       1       1       3       3       1       2       1       3       3      14       3      14       1       4       0       1      12       5       9       2
       1       1       1       3       1       2       1       1       1       1      11       2       4       6      11       6       8       4      14       9       1
       2       3       2       3       1       2       2       1       2       1       7       0      10      13       7       4       2      10       5       1       1
       3       3       3       3       1       3       2       2       2       1      14      14       1       5       9      12       9       6      16       9       1
       2       3       3       2       2       1       3       3       1       1      14       8       9      15       5      15      16      15       7       6       1
       3       2       2       3       2       3       1       3       1       2       1       4       8      13       6      16      11      12       6       7       2
       3       1       3       3       1       1       2       1       3       1       6       9      13      14       0       2      10      11       9       1       2
       3       2       2       2       1       3       3       3       2       1      10      15       8       2      12      10      16       6      12       1       1
       3       2       3       1       3       1       1       1       1       1       1       9      12       6      15       4      16      13       6      13       2
       1       2       2       1       2       1       2       1       2       1      12       9       4       3       4       3      12      14       5       4       2
       2       1       3       3       3       1       3       1       3       1       8       5       4      15      16       5       7       1       9       0       2
       3       2       3       2       2       3       1       1       1       2      10       5       4       6      16      16       2      16       9      16       2
       2       2       2       1       1       1       2       1       3       1       8       6      14      10      16      15       2       4      13       8       1
       1       1       1       1       3       2       3       1       3       3       8       7       1       4       6       0       6      14       6      12       1
       2       3       3       3       1       3       1       2       3       3       1       3      13       7       4      11       0      12      13       9       1
       2       1       3       2       1       2       1       3       2       2       5      15       5      16       6       9      10      14      14      15       2
       2       3       1       1       2       1       1       3       2       3      15       6       3      13       4       1      14       2      16       4       1
       2       2       1       2       1       1       2       3       1       3       3       0       6      10       2      15       3       8      13       7       1
       2       1       1       3       2       3       1       2       1       1       2      14      12       7       7       1      15      15      13       2       2
       1       3       2       3       2       2       2       3       2       2      11      16      13       9      10      11      10       7      15      14       1
       2       3       1       2       1       1       3       1       3       1      11       6      13      11       2       3      16       8       1      15       1
       2       3       1       1       1       2       3       1       3       1       6       0       5      10       9       8       9       0      11      16       1
       2       2       3       2       3       2       1       1       3       1      13      10       5      11       9      16       4       4      13      12       1
       2       2       2       2       3       2       3       2       2       3       3      16       7      14       4       1       1      15       5      10       2
       1       1       1       3       2       1       1       2       3       2       4      12       1       9       5      11       9      15      11       4       2
       1       3       3       2       3       3       3       1       2       1       9      11       9       4      14       7       9      16       9       6       1
       3       3       1       2       3       3       1       2       3       3      16      15      10       8      10      13       6       0       5       9       1
       3       1       1       3       3       1       2       1       2       1       0       4      11      15      11      15       9      15      14       8       2
       1       2       3       3       1       2       1       3       3       3       9       8       9       2      12       5      12       3       2      12       2
       2       1       1       2       3       3       1       3       3       2       0       0       9      15      11       0       7       2       1       3       2
       1       3       3       2       2       3       1       2       3       3       3      16      16       6       6      11       4      11       8       0       1
       3       3       1       1       3       1       1       2       2       3       6       7      13      15       2       8       4       3       3      11       1
       1       3       1       3       3       2       3       3       1       3      16      15      12       9      12       1       0      13      13       1       2
       3       1       1       1       1       1       2       2       1       2       5       1       0      11      15       2       1      16       4       9       2
       1       2       1       2       2       3       3       3       2       1      11       9      16       8      15       6       1      11      16      16       2
       2       2       3       2       1       1       1       1       1       2       3       8       2      16       0      12       4       2       2       7       1
       2       1       2       1       2       3       3       3       1       2       1       9      13      10       0      14       1       5      12       6       1
       1       3       1       3       2       2       2       3       1       1       1       4       6       6      14       7      13       3       5       2       2
       1       3       2       3       1       1       2       1       2       2      12      10       4       2       9      13      15      16      12       0       2
       3       1       3       1       3       2       1       2       2       2       5       2       2      10       7       5       4      12       0       6       1
       1       1       3       2       2       1       1       2       1       3       5      12      14      12      11      10      12       4      16      12       1
       2       3       1       2       3       3       2       1       1       3       0       9      14       1       7      13      16       5      10       4       2
       1       1       3       1       1       2       3       3       1       3      10      14       2      13       9       8      10      13       1      10       2
       2       1       2       1       1       3       3       3       3       1       1       8       7       3      11       2       2       9      10       8       1
       2       2       2       1       2       3       3       2       2       3       0       5       7      15      11       2       9       6       0      15       2
       3       3       1       3       1       1       3       2       3       3      14       0       2      14       4       7       0       6       8       2       1
       1       1       3       3       3       2       1       2       2       3       4       1      13       5      16       0      14       5      12       4       2
       2       1       1       3       1       1       2       2       2       2      12       9       1       0      15      16       5      12       3       2       2
       3       3       2       1       3       2       3       3       3       1       9       0       2       2      15      15      11       6       1      16       2
       3       2       1       2       1       3       1       1       2       1      16      10       5       5       3       7       5       0      15       1       1
       2       3       1       2       3       3       1       2       3       2       3      11       3      11       9       5      12       7       9      13       1
       3       1       1       3       2       3       3       2       3       2      10       1       4      10       5       3       8       9      16       3       1
       2       2       2       2       1       1       1       1       3       2      16       6       9      13       3      13       9      16       2       3       1
       1       2       2       1       2       2       3       1       2       1      13      13       8      14       4       4       4      14       2       7       2
       2       1       1       1       3       1       1       2       3       1       5       1      11       7       8       0       5       4       1       1       1
       3       3       2       3       1       1       3       2       2       3      11       6      15       8       0       2      16       4      16       8       2
       3       1       2       2       1       1       1       1       3       2      16       1      10      16       4       2       7      13      16       7       2
       2       2       2       2       3       2       1       3       1       3      13      13       4      15       4      12      12       1       0       9       1
       2       2       1       2       3       3       1       1       2       2      11       6       5       3      10       0       6       6       2      12       1
       1       1       1       2       2       1       3       2       3       1       0       1       5       2       1       5       0       4       8       1       1
       2       3       2       1       2       2       1       1       1       2       0       6       6       9       9      16      15      12       2       1       2
       3       3       2       2       1       3       3       2       3       1      15       2      12       7       9       6       7       6      16      14       1
       2       2       1       1       2       3       3       3       3       2      12       4       5      10      10       2      12       4       7       5       1
       2       2       1       3       2       3       2       2       1       2       7       2       4       9       2       6       4       9       3      15       2
       1       3       2       1       1       1       3       2       1       1       8       9      13       7      14       1       0      10       8       4       2
       1       2       3       2       2       3       3       2       1       2       8       0       1      13      13       0      11       8       0       3       2
       1       1       2       3       3       2       3       2       3       2       6       4       0       3      11      13       3       0       1       4       1
       1       3       2       1       1       1       2       1       1       1       6       6      10      10       9       4      10       6       4       3       2
       2       1       3       2       3       2       1       3       2       3      12       3       2       7      11       7       2       6       4       1       2
       3       2       2       2       2       2       2       1       2       2      13      15       9       3       5       3       3      10       4      11       1
       2       3       2       3       2       1       3       3       3       1      10      12       9       7       9       4      15      14      13       4       2
       1       2       1       3       1       2       1       1       1       3       0       6      10      14      15      16      14       6      14       9       2
       1       3       1       2       2       3       3       2       1       3      11       6      11       2      11      14       9      12       0      16       2
       3       2       3       2       3       2       3       3       3       3      11       0       7       6       1       9       0       6       0       3       2
       3       3       2       1       3       1       1       1       3       3       8      12       7      13      15       3      12       2       2      12       1
       2       3       3       3       1       3       3       3       3       1       1      12       8      16      14       9      16       9       0      10       2
       1       3       2       3       1       2       1       1       2       3      14      15       7       3      14      13      11       2       6      13       2
       1       2       2       2       1       1       2       3       1       3      14       2      13      12       0      16       1      12       2       4       2
       2       3       1       3       2       2       2       2       3       2       8       0       5       0      10       7       3      16      12       7       1
       1       3       1       2       1       3       3       2       3       1       3      11       0      12       3       6       3      12       8       1       2
       1       3       2       1       1       2       1       2       2       3      11      10      15       6       3      13       7      13       6      16       1
       3       1       3       1       3       1       1       2       2       3      10      12       2       5       5       5      15       5       5      16       1
       3       1       3       2       2       3       2       1       2       3      11       4       2      12      11       4       8       2      14      15       1
       1       2       2       1       2       3       3       2       1       3       7      12       3       6      15       1      16       8      15      16       2
       2       3       3       2       2       2       1       1       3       3      10      10      12      13      15      15       9       6      13      16       2
       2       1       3       1       1       1       1       1       1       2      15      13       6       1       9      13      14       7       8      13       2
       2       2       1       1       2       2       1       3       1       1      11      12      14      15      12       1      14       8       7       6       1
       1       2       1       3       3       3       2       2       2       3      11       1      10      14       5       9       0      15       5       3       1
       2       2       2       3       3       1       3       3       2       3      16      14       9      11       0      13      11      14       6       4       1
       3       2       2       3       1       2       1       3       3       3      11      16       1      10       2       9       4       5      12      16       2
       2       1       1       1       2       2       2       2       3       1       7      11      12      12      11       3       5       4      15      15       1
       3       2       2       1       1       3       1       3       1       3       5       5      13       6       9       5      15      16       4       1       2
       2       2       1       2       2       3       2       1       2       2      14       9      16      14      12      12       9       3       6      12       2
       1       1       2       1       3       1       2       1       3       3       9       2      12      14       2       8      15       2      13       3       2
       2       1       1       3       1       3       2       3       3       3       9       8      10      12       7      12      10      11      14       7       1
       3       1       1       3       2       3       2       3       3       3      13      11      11       8       5       3       2       6      14       5       2
       3       1       1       1       2       1       1       3       3       1      11      11      11      14      11      13      15      10       3       3       1
       1       1       1       2       1       1       1       1       1       3      11       9      10       7       4       0       0      11      10      12       1
       2       1       2       1       2       3       3       2       3       3       0      14      13      13      15       7      14       2       2       3       1
       3       2       1       3       1       2       3       1       3       1       4      15       1       5      16      11      16       3       8       7       2
       2       1       3       1       1       1       3       1       1       2      10       5      14       5       3      16       4      10       1      16       2
       1       3       1       3       2       2       3       2       1       2       1       6      16      11      12       5      10       9      10       1       2
      32      32      32      43      52      32      44      46      35      43
      64      61      61      88      99      64      89      90      72      85
     114      86     121     171     238      99     181     174     183     205